language ESSENCE' 1.0
$ Futoshiki instance, by Andras Salamon
$ specify the numbers in the grid
letting values be [[0, 0, 0, 0, 0], [0, 0, 0, 0, 0], [1, 0, 0, 0, 0], [0, 0, 0, 0, 0], [0, 0, 0, 0, 0]]
$ specify last index in array lt; lt[0] is first entry
letting lastdx be 6
$ [i1,j1,i2,j2] requires that values[i1,j1]<values[i2,j2]
letting lt be [[2, 3, 5, 3], [1, 1, 5, 5], [4, 2, 3, 3], [3, 4, 2, 1], [1, 2, 4, 3], [4, 2, 3, 2], [4, 5, 5, 3]]
